language ESSENCE' 1.0

letting n_boats be 8
letting n_periods be 6
letting crew_Function1D be [2, 2, 2, 2, 4, 4, 4, 1; int(1..8)]
letting capacity_Function1D be [6, 8, 12, 12, 12, 12, 12, 10; int(1..8)]
letting fin1 be 8
letting fin2 be 12
letting fin3 be 8
letting fin4 be 4
